data;

param w := 24;
param n := 18;
param min_h := 24;
param max_h := 41;

set BLOCKS := 1 2 3 4 5 6 7 8 9 10 11 12 13 14 15 16 17 18 ;

param:	width	height :=
	1	5	16
	2	3	24
	3	3	18
	4	4	12
	5	3	14
	6	5	8
	7	3	12
	8	3	10
	9	3	9
	10	3	8
	11	3	7
	12	4	5
	13	3	6
	14	4	4
	15	3	5
	16	4	3
	17	3	4
	18	3	3;